W=7;
H=7;

MAX_TIME=16;
MAX_TRACKS=15;

TARGET=(1,7);

TRAINS=[(5,1,RIGHT),(7,1,RIGHT),(3,5,LEFT)];
DECOYS=[];

INIT_POS=[
(1,6,STRAIGHT_RL),
(1,7,STRAIGHT_RL),
(2,3,ROCK),
(2,6,ROCK),
(3,3,ROCK),
(3,5,STRAIGHT_RL),
(3,6,ROCK),
(4,3,ROCK),
(4,6,ROCK),
(5,1,STRAIGHT_RL),
(7,1,STRAIGHT_RL),
];
TUNNEL_PAIRS=[
  (1, 3, RIGHT, 6, 7, LEFT),
];

GATES=[];
ACTIVATIONS=[];

DSWITCHES=[];

STATIONS=[];

SEMAPHORE_SUPPLY=0;
